Version identifier: 20.1.0.0 | 2020-11-10 | 9bedb6d68
CPXPARAM_Threads                                 1
CPXPARAM_TimeLimit                               7200
CPXPARAM_MIP_Tolerances_MIPGap                   0
Generic callback                                 0x60
1 of 1 MIP starts provided solutions.
MIP start 'm1' defined initial solution with objective 1121.5186.
Tried aggregator 1 time.
Reduced MIP has 640801 rows, 640801 columns, and 1920800 nonzeros.
Reduced MIP has 800 binaries, 0 generals, 0 SOSs, and 0 indicators.
Presolve time = 0.64 sec. (607.18 ticks)
Probing time = 0.08 sec. (80.04 ticks)
Tried aggregator 1 time.
Reduced MIP has 640801 rows, 640801 columns, and 1920800 nonzeros.
Reduced MIP has 800 binaries, 0 generals, 0 SOSs, and 0 indicators.
Presolve time = 0.64 sec. (596.80 ticks)
Probing time = 0.08 sec. (80.04 ticks)
MIP emphasis: balance optimality and feasibility.
MIP search method: dynamic search.
Parallel mode: none, using 1 thread.
Root relaxation solution time = 0.20 sec. (246.72 ticks)

        Nodes                                         Cuts/
   Node  Left     Objective  IInf  Best Integer    Best Bound    ItCnt     Gap

*     0+    0                         1121.5186     4368.0000           289.47%
      0     0     1151.5049     2     1121.5186     4368.0000        0  289.47%
      0     2     1151.5049     2     1121.5186     1151.5049        0    2.67%
Elapsed time = 2994.01 sec. (2535636.86 ticks, tree = 0.01 MB, solutions = 1)
      1     1        cutoff           1121.5186     1151.5049     2479    2.67%
      2     2     1127.3068     6     1121.5186     1127.3068    62722    0.52%
      3     3     1127.2079     8     1121.5186     1127.3067    65301    0.52%
*     4     2      integral     0     1122.0556     1127.2078   120696    0.46%
      5     1        cutoff           1122.0556     1127.2059   246542    0.46%
Advanced basis not built.

User cuts applied:  13

Root node processing (before b&c):
  Real time             = 2993.89 sec. (2535520.41 ticks)
Sequential b&c:
  Real time             = 4206.94 sec. (2749701.55 ticks)
                          ------------
Total (root+branch&cut) = 7200.82 sec. (5285221.96 ticks)
@Parameters: 
is_S_cut                                true
is_add_all_yinF                         true
is_start_value                          true
is_usercut                              true
is_visualization                        false
uc_only_rootnode                        false

data                                    Qi
fn                                      data/Qi/instance_800_800.csv
mode                                    ZLP
solver                                  cplex

p                                       2
r                                       10

EPS                                     1.0e-06
EPS_vio                                 1.0e-04
beta                                    0.10
gap                                     0.00
nodelimit                               Inf
timelimit                               7200.00


@PrintInfos
ItCnt: 254730
Current gap: 0.46 %
Termination Status: TIME_LIMIT
Primal Status: FEASIBLE_POINT
Solve Time: 7200.82 sec
Objective Value: 1122.055633
Number of Nodes:      6

CutInfo: [phase] num / time (sec) 
ZLP             [phase1]     0 / 0.00 [rLC]     4 / 15.33 [rUC]     2 / 7.43 [sLC]     2 / 7.32 [sUC]     9 / 67.45 
OldSubmodular   [phase1]     0 / 0.00 [rLC]     0 / 0.00 [rUC]     0 / 0.00 [sLC]     0 / 0.00 [sUC]     0 / 0.00 
NewSubmodular   [phase1]     0 / 0.00 [rLC]     0 / 0.00 [rUC]     0 / 0.00 [sLC]     0 / 0.00 [sUC]     0 / 0.00 
PMP             [phase1]     0 / 0.00 [rLC]     5 / 10.75 [rUC]     2 / 5.74 [sLC]     3 / 5.49 [sUC]    13 / 53.98 
Separation Round: [phase1] 0  [rLC] 5  [rUC] 2  [sLC] 3  [sUC] 13
Root Best Bound 1127.306786
Root Best Integer: 1121.518604
Best Bound: 1127.306671
Best Integer: 1121.518604

